9 200
0 0 70 70 0 0 1351 0 0 0
1 164 97 29 30 49 119 0 0 210
2 66 97 28 20 110 170 90 0 91
3 147 96 26 10 202 262 90 0 160
4 47 99 28 30 392 442 90 0 70
5 210 97 29 -30 49 119 90 164 0
6 91 98 31 -20 480 541 90 66 0
7 160 99 26 -10 287 363 90 147 0
8 70 103 34 -30 577 636 90 47 0

